NAME : KROA149C
TYPE : PDTSP
DIMENSION : 149
EDGE_WEIGHT_TYPE : EUC_2D
NODE_COORD_SECTION
1 1380 939
2 2848 96
3 3510 1671
4 457 334
5 3888 666
6 984 965
7 2721 1482
8 1286 525
9 738 1325
10 1251 1832
11 2728 1698
12 3815 169
13 3683 1533
14 1247 1945
15 123 862
16 1234 1946
17 252 1240
18 611 673
19 2576 1676
20 928 1700
21 53 857
22 1807 1711
23 274 1420
24 2574 946
25 178 24
26 2678 1825
27 1795 962
28 3384 1498
29 3520 1079
30 1256 61
31 1424 1728
32 3913 192
33 3085 1528
34 2573 1969
35 463 1670
36 3875 598
37 298 1513
38 3479 821
39 2542 236
40 3955 1743
41 1323 280
42 3447 1830
43 2936 337
44 1621 1830
45 3373 1646
46 1393 1368
47 3874 1318
48 938 955
49 3022 474
50 2482 1183
51 3854 923
52 376 825
53 2519 135
54 2945 1622
55 953 268
56 2628 1479
57 2097 981
58 890 1846
59 2139 1806
60 2421 1007
61 2290 1810
62 1115 1052
63 2588 302
64 327 265
65 241 341
66 1917 687
67 2991 792
68 2573 599
69 19 674
70 3911 1673
71 872 1559
72 2863 558
73 929 1766
74 839 620
75 3893 102
76 2178 1619
77 3822 899
78 378 1048
79 1178 100
80 2599 901
81 3416 143
82 2961 1605
83 611 1384
84 3113 885
85 2597 1830
86 2586 1286
87 161 906
88 1429 134
89 742 1025
90 1625 1651
91 1187 706
92 1787 1009
93 22 987
94 3640 43
95 3756 882
96 776 392
97 1724 1642
98 198 1810
99 3950 1558
100 3477 949
101 91 1732
102 3972 329
103 198 1632
104 1806 733
105 538 1023
106 3430 1088
107 2186 766
108 1513 1646
109 2143 1611
110 53 1657
111 3404 1307
112 1034 1344
113 2823 376
114 3104 1931
115 3232 324
116 2790 1457
117 374 9
118 741 146
119 3083 1938
120 3502 1067
121 1280 237
122 3326 1846
123 217 38
124 2503 1172
125 3527 41
126 739 1850
127 3548 1999
128 48 154
129 1419 872
130 1689 1223
131 3468 1404
132 1628 253
133 382 872
134 3029 1242
135 3646 1758
136 285 1029
137 1782 93
138 1067 371
139 2849 1214
140 920 1835
141 1741 712
142 876 220
143 2753 283
144 2609 1286
145 3941 258
146 3613 523
147 1754 559
148 2916 1724
149 2445 1820
PICKUP_AND_DELIVERY_SECTION
1 0 0 0 0 0 0
2 0 0 0 0 125 0
3 0 0 0 0 110 0
4 0 0 0 0 0 41
5 0 0 0 0 20 0
6 0 0 0 0 28 0
7 0 0 0 0 0 16
8 0 0 0 0 0 117
9 0 0 0 0 0 11
10 0 0 0 0 42 0
11 0 0 0 0 9 0
12 0 0 0 0 124 0
13 0 0 0 0 0 61
14 0 0 0 0 66 0
15 0 0 0 0 49 0
16 0 0 0 0 7 0
17 0 0 0 0 0 22
18 0 0 0 0 33 0
19 0 0 0 0 0 130
20 0 0 0 0 0 5
21 0 0 0 0 114 0
22 0 0 0 0 17 0
23 0 0 0 0 0 29
24 0 0 0 0 37 0
25 0 0 0 0 0 98
26 0 0 0 0 77 0
27 0 0 0 0 0 93
28 0 0 0 0 0 6
29 0 0 0 0 23 0
30 0 0 0 0 0 118
31 0 0 0 0 65 0
32 0 0 0 0 0 87
33 0 0 0 0 0 18
34 0 0 0 0 0 120
35 0 0 0 0 0 71
36 0 0 0 0 0 139
37 0 0 0 0 0 24
38 0 0 0 0 143 0
39 0 0 0 0 100 0
40 0 0 0 0 0 123
41 0 0 0 0 4 0
42 0 0 0 0 0 10
43 0 0 0 0 88 0
44 0 0 0 0 73 0
45 0 0 0 0 0 115
46 0 0 0 0 0 78
47 0 0 0 0 145 0
48 0 0 0 0 0 101
49 0 0 0 0 0 15
50 0 0 0 0 0 108
51 0 0 0 0 0 84
52 0 0 0 0 0 131
53 0 0 0 0 107 0
54 0 0 0 0 105 0
55 0 0 0 0 62 0
56 0 0 0 0 0 129
57 0 0 0 0 0 134
58 0 0 0 0 79 0
59 0 0 0 0 0 113
60 0 0 0 0 0 133
61 0 0 0 0 13 0
62 0 0 0 0 0 55
63 0 0 0 0 0 137
64 0 0 0 0 0 142
65 0 0 0 0 0 31
66 0 0 0 0 0 14
67 0 0 0 0 0 109
68 0 0 0 0 89 0
69 0 0 0 0 0 72
70 0 0 0 0 0 102
71 0 0 0 0 35 0
72 0 0 0 0 69 0
73 0 0 0 0 0 44
74 0 0 0 0 0 76
75 0 0 0 0 0 121
76 0 0 0 0 74 0
77 0 0 0 0 0 26
78 0 0 0 0 46 0
79 0 0 0 0 0 58
80 0 0 0 0 148 0
81 0 0 0 0 0 136
82 0 0 0 0 149 0
83 0 0 0 0 0 135
84 0 0 0 0 51 0
85 0 0 0 0 122 0
86 0 0 0 0 103 0
87 0 0 0 0 32 0
88 0 0 0 0 0 43
89 0 0 0 0 0 68
90 0 0 0 0 119 0
91 0 0 0 0 0 112
92 0 0 0 0 144 0
93 0 0 0 0 27 0
94 0 0 0 0 0 126
95 0 0 0 0 138 0
96 0 0 0 0 0 147
97 0 0 0 0 0 128
98 0 0 0 0 25 0
99 0 0 0 0 111 0
100 0 0 0 0 0 39
101 0 0 0 0 48 0
102 0 0 0 0 70 0
103 0 0 0 0 0 86
104 0 0 0 0 146 0
105 0 0 0 0 0 54
106 0 0 0 0 0 140
107 0 0 0 0 0 53
108 0 0 0 0 50 0
109 0 0 0 0 67 0
110 0 0 0 0 0 3
111 0 0 0 0 0 99
112 0 0 0 0 91 0
113 0 0 0 0 59 0
114 0 0 0 0 0 21
115 0 0 0 0 45 0
116 0 0 0 0 0 141
117 0 0 0 0 8 0
118 0 0 0 0 30 0
119 0 0 0 0 0 90
120 0 0 0 0 34 0
121 0 0 0 0 75 0
122 0 0 0 0 0 85
123 0 0 0 0 40 0
124 0 0 0 0 0 12
125 0 0 0 0 0 2
126 0 0 0 0 94 0
127 0 0 0 0 0 132
128 0 0 0 0 97 0
129 0 0 0 0 56 0
130 0 0 0 0 19 0
131 0 0 0 0 52 0
132 0 0 0 0 127 0
133 0 0 0 0 60 0
134 0 0 0 0 57 0
135 0 0 0 0 83 0
136 0 0 0 0 81 0
137 0 0 0 0 63 0
138 0 0 0 0 0 95
139 0 0 0 0 36 0
140 0 0 0 0 106 0
141 0 0 0 0 116 0
142 0 0 0 0 64 0
143 0 0 0 0 0 38
144 0 0 0 0 0 92
145 0 0 0 0 0 47
146 0 0 0 0 0 104
147 0 0 0 0 96 0
148 0 0 0 0 0 80
149 0 0 0 0 0 82
DEPOT_SECTION
1 
-1
EOF
